cluster_editing/exact/simple_reductions/graphs/exact067.gr.metis
139 2877
4 20 26 31 34 68 69 75 

6 7 10 11 15 24 28 30 32 36 37 38 39 40 41 42 44 46 49 51 52 54 55 57 58 60 61 65 66 70 76 79 85 86 88 89 90 92 96 97 99 100 101 102 103 107 108 109 111 112 113 115 118 119 121 122 124 130 131 133 136 139 
1 14 16 20 21 25 26 31 34 64 69 114 125 128 132 
27 29 35 37 39 51 52 57 58 60 61 66 70 85 89 90 100 111 133 134 
3 7 10 11 13 15 18 19 23 24 28 32 35 36 37 38 39 40 42 43 44 46 49 50 51 52 54 55 57 58 59 60 61 65 66 70 71 74 79 81 82 85 86 88 89 90 91 92 93 94 96 97 100 101 103 105 107 109 110 111 112 113 115 118 119 121 122 124 127 130 131 133 134 139 
3 6 10 11 15 18 22 23 24 28 30 36 37 38 39 40 41 42 44 45 46 49 51 52 53 54 55 57 58 59 60 61 65 66 70 71 74 76 79 81 82 85 86 88 89 90 92 93 94 96 97 100 101 104 107 109 110 111 112 113 115 118 119 121 122 124 130 131 133 134 139 
49 72 135 
106 
3 6 7 11 15 24 28 30 32 36 37 38 39 40 41 42 44 46 49 51 52 54 55 57 58 60 61 65 66 70 76 79 85 86 88 89 90 92 96 97 99 100 101 102 103 107 108 109 111 112 113 115 118 119 121 122 124 130 131 133 136 139 
3 6 7 10 15 22 23 24 28 30 36 37 38 39 40 41 42 44 45 46 49 51 52 53 54 55 57 58 59 60 61 65 66 70 74 76 79 82 85 86 88 89 90 92 93 94 96 97 100 101 102 103 107 108 109 110 111 112 113 115 118 119 120 121 122 124 130 131 133 134 136 139 
75 77 
6 15 23 24 28 32 37 38 43 52 55 59 60 74 79 85 91 94 100 107 109 110 113 118 127 129 131 139 
4 16 20 21 25 26 31 34 64 125 128 
3 6 7 10 11 13 18 19 23 24 27 28 30 32 35 36 37 38 39 40 41 42 43 44 45 46 49 50 51 52 54 55 57 58 59 60 61 65 66 70 71 74 79 81 82 85 86 88 89 90 91 92 94 96 97 100 101 103 105 107 109 110 111 112 113 115 118 119 121 124 127 130 131 133 134 139 
4 14 20 21 25 26 31 34 64 128 
123 
6 7 15 19 23 24 27 28 32 35 36 37 38 39 43 44 46 49 50 51 52 54 55 57 58 59 60 61 65 66 70 71 74 79 81 82 85 89 90 91 94 96 97 100 101 103 105 107 109 110 111 113 115 118 119 121 131 133 134 139 
6 15 18 23 24 27 28 32 37 38 39 46 50 52 55 57 59 61 65 70 71 74 79 81 85 91 92 94 97 103 107 109 110 111 113 118 121 133 134 139 
1 4 14 16 21 25 26 31 34 64 69 114 125 128 132 
4 14 16 20 25 26 31 34 64 77 114 125 128 132 
7 11 24 36 38 44 45 46 51 52 70 74 85 86 90 91 93 104 109 115 118 119 139 
6 7 11 13 15 18 19 24 27 28 29 32 35 36 37 38 39 40 43 44 45 46 49 50 51 52 53 54 55 57 58 59 60 61 65 66 70 71 74 79 81 82 85 86 88 89 90 91 93 94 96 97 100 101 103 105 107 109 110 111 112 113 115 118 119 121 122 124 127 131 133 134 139 
3 6 7 10 11 13 15 18 19 22 23 27 28 30 32 35 36 37 38 39 40 41 42 43 44 45 46 49 50 51 52 53 54 55 57 58 59 60 61 65 66 70 71 72 74 76 79 81 82 85 86 88 89 90 91 92 93 94 96 97 100 101 103 105 107 109 110 111 112 113 115 118 119 121 122 124 127 130 131 133 134 139 
4 14 16 20 21 26 31 34 64 114 125 128 132 
1 4 14 16 20 21 25 31 34 64 69 114 125 128 132 
5 15 18 19 23 24 29 35 37 39 50 51 52 55 57 58 59 61 65 66 70 71 74 79 89 90 91 94 96 97 100 107 109 110 111 113 118 121 133 134 
3 6 7 10 11 13 15 18 19 23 24 32 35 37 38 39 43 44 46 49 50 51 52 55 57 58 59 60 61 65 66 70 71 74 79 81 82 85 86 88 89 90 91 92 94 96 97 100 101 103 105 107 109 110 111 112 113 118 119 122 124 127 129 130 131 133 139 
5 23 27 35 37 39 52 57 58 59 60 61 66 74 85 89 100 110 111 113 118 131 134 
3 7 10 11 15 24 36 37 38 39 40 41 42 44 46 49 51 52 54 57 58 60 61 65 66 70 85 86 88 89 90 92 96 100 101 102 105 108 111 112 115 118 119 120 121 122 124 130 134 139 
1 4 14 16 20 21 25 26 34 64 69 114 125 128 132 
3 6 10 13 15 18 19 23 24 28 35 37 39 43 46 49 50 51 52 55 57 58 59 60 61 65 66 71 74 79 81 85 89 90 91 92 94 96 97 100 103 107 109 110 113 118 127 129 130 131 133 134 139 

1 4 14 16 20 21 25 26 31 64 69 114 125 128 132 
5 6 15 18 23 24 27 28 29 32 37 39 42 50 52 55 57 58 59 61 65 66 70 71 74 79 82 85 89 91 94 100 103 107 109 110 111 113 118 121 122 131 134 139 
3 6 7 10 11 15 18 22 23 24 30 37 38 39 40 41 42 44 45 46 49 51 52 53 54 55 57 58 59 60 61 65 66 70 71 74 76 79 82 83 85 86 88 89 90 91 92 93 94 96 97 100 101 102 105 107 108 109 110 111 112 113 115 118 119 120 121 122 124 130 131 133 134 139 
3 5 6 7 10 11 13 15 18 19 23 24 27 28 29 30 32 35 36 38 39 40 42 43 44 45 46 49 50 51 52 54 55 57 58 59 60 61 65 66 70 71 74 76 79 81 82 85 86 88 89 90 91 92 94 96 97 100 101 102 103 105 107 109 110 111 112 113 115 118 119 121 122 124 127 129 130 131 133 134 139 
3 6 7 10 11 13 15 18 19 22 23 24 28 30 36 37 39 40 41 42 43 44 45 46 49 51 52 53 54 55 57 58 59 60 61 65 66 70 71 74 76 79 81 82 85 86 88 89 90 91 92 93 94 96 97 100 101 103 104 105 107 109 110 111 112 113 115 118 119 121 122 124 127 130 131 133 134 139 
3 5 6 7 10 11 15 18 19 23 24 27 28 29 30 32 35 36 37 38 44 46 49 50 51 52 55 57 58 59 60 61 65 66 70 71 74 79 81 82 85 89 90 91 94 96 97 100 101 103 105 107 109 110 111 112 113 115 118 119 121 122 124 130 131 133 134 139 
3 6 7 10 11 15 23 24 30 36 37 38 41 42 44 46 49 51 52 54 55 57 58 59 60 61 65 66 70 74 76 79 82 85 86 88 89 90 92 94 96 97 100 101 102 103 107 108 109 110 112 115 118 119 120 122 124 130 131 133 136 139 
3 7 10 11 15 24 30 36 38 40 42 44 46 51 52 65 70 79 86 88 90 92 96 101 102 105 108 112 115 118 119 120 121 122 124 130 136 139 
3 6 7 10 11 15 24 30 35 36 37 38 40 41 44 46 51 52 54 57 58 60 61 65 66 70 79 85 86 88 89 90 92 96 97 99 100 101 108 112 113 115 118 119 122 124 130 133 134 136 139 
6 13 15 18 23 24 28 32 37 38 44 49 50 52 55 57 58 59 60 61 65 66 70 71 74 79 81 82 85 89 91 94 96 97 100 103 105 107 109 110 113 118 119 121 127 131 133 134 139 
3 6 7 10 11 15 18 22 23 24 28 30 36 37 38 39 40 41 42 43 45 46 49 51 52 53 54 55 57 58 59 60 61 65 66 70 74 79 82 85 86 88 89 90 92 93 94 96 97 100 101 103 105 107 109 110 112 113 115 118 119 121 122 124 130 131 133 139 
7 11 15 22 23 24 36 37 38 44 46 51 52 55 57 59 61 65 70 74 82 85 86 90 93 96 97 104 105 107 109 110 115 118 119 121 133 139 
3 6 7 10 11 15 18 19 22 23 24 28 30 32 36 37 38 39 40 41 42 44 45 49 51 52 53 54 55 57 58 59 60 61 65 66 70 71 74 76 79 81 82 85 86 88 89 90 91 92 94 96 97 100 101 102 103 105 107 108 109 110 111 112 113 115 118 119 120 121 122 124 130 131 133 134 136 139 
123 
67 116 138 
3 6 7 8 10 11 15 18 23 24 28 30 32 36 37 38 39 40 43 44 46 50 51 52 53 54 55 57 58 59 60 61 65 66 70 71 72 74 81 82 83 85 86 88 89 90 91 94 96 97 100 101 103 104 105 107 109 110 112 113 115 118 119 121 124 130 133 134 139 
6 15 18 19 23 24 27 28 32 35 37 39 43 49 51 52 55 57 58 59 61 65 66 70 71 74 79 81 82 85 89 90 91 94 97 100 103 107 109 110 111 113 118 129 131 133 139 
3 5 6 7 10 11 15 18 22 23 24 27 28 30 32 36 37 38 39 40 41 42 44 45 46 49 50 52 53 54 55 57 58 59 60 61 65 66 70 71 74 76 79 81 82 85 86 88 89 90 91 92 93 94 96 97 100 101 102 103 105 107 108 109 110 111 112 113 115 118 119 120 121 122 124 130 131 133 134 136 139 
3 5 6 7 10 11 13 15 18 19 22 23 24 27 28 29 30 32 35 36 37 38 39 40 41 42 43 44 45 46 49 50 51 54 55 57 58 59 60 61 65 66 70 71 74 76 79 81 82 85 86 88 89 90 91 92 93 94 96 97 100 101 102 103 105 107 109 110 111 112 113 115 118 119 121 122 124 127 129 130 131 133 134 139 
7 11 23 24 36 38 44 46 49 51 55 59 61 65 70 82 83 89 90 96 105 107 110 115 118 119 133 139 
3 6 7 10 11 15 18 23 24 30 36 37 38 40 42 44 46 49 51 52 55 59 60 61 65 70 74 76 79 82 85 86 88 89 90 92 94 96 97 100 101 102 107 108 109 110 112 113 115 118 119 121 122 124 130 131 133 139 
3 6 7 10 11 13 15 18 19 23 24 27 28 32 35 36 37 38 39 40 43 44 45 46 49 50 51 52 53 54 57 58 59 60 61 65 66 70 71 74 79 81 82 85 86 88 89 90 91 92 93 94 96 97 100 101 103 105 107 109 110 111 112 113 115 118 119 121 122 124 127 130 131 133 134 139 
95 
3 5 6 7 10 11 15 18 19 23 24 27 28 29 30 32 35 36 37 38 39 40 42 43 44 45 46 49 50 51 52 55 58 59 60 61 65 66 70 71 74 79 81 82 85 86 88 89 90 91 92 94 96 97 100 101 103 105 107 109 110 111 112 113 115 118 119 121 122 124 130 131 133 134 139 
3 5 6 7 10 11 15 18 23 24 27 28 29 30 32 35 36 37 38 39 40 42 43 44 46 49 50 51 52 55 57 59 60 61 65 66 70 71 74 79 81 82 85 86 88 89 90 91 92 94 96 97 100 101 103 107 109 110 111 112 113 115 118 119 121 124 130 131 133 134 139 
6 7 11 13 15 18 19 23 24 27 28 29 32 35 36 37 38 39 40 43 44 45 46 49 50 51 52 53 54 55 57 58 60 61 65 66 70 71 74 79 81 82 85 86 88 89 90 91 93 94 96 97 100 101 103 105 107 109 110 111 112 113 115 118 119 121 122 124 127 131 133 134 139 
3 5 6 7 10 11 13 15 18 23 24 28 29 30 32 36 37 38 39 40 42 43 44 46 49 51 52 54 55 57 58 59 61 65 66 70 71 74 76 79 81 82 85 86 88 89 90 91 92 93 94 96 97 100 101 103 105 107 109 110 111 112 113 115 118 119 121 124 127 129 130 131 133 134 139 
3 5 6 7 10 11 15 18 19 23 24 27 28 29 30 32 35 36 37 38 39 40 42 43 44 45 46 49 50 51 52 53 54 55 57 58 59 60 65 66 70 71 72 74 76 79 81 82 83 85 86 88 89 90 91 92 93 94 96 97 100 101 103 105 107 109 110 111 112 113 115 118 119 121 122 124 130 131 133 134 139 
117 126 
73 78 84 98 
4 14 16 20 21 25 26 31 34 114 125 128 
3 6 7 10 11 15 18 19 23 24 27 28 30 32 35 36 37 38 39 40 41 42 43 44 45 46 49 50 51 52 53 54 55 57 58 59 60 61 66 70 71 72 74 76 79 81 82 83 85 86 88 89 90 91 92 93 94 96 97 100 101 103 105 107 109 110 111 112 113 115 118 119 121 122 124 130 131 133 134 139 
3 5 6 7 10 11 15 18 23 24 27 28 29 30 32 35 36 37 38 39 40 42 43 44 46 49 50 51 52 55 57 58 59 60 61 65 70 71 74 79 81 82 85 86 88 89 90 91 92 94 96 97 100 101 103 107 109 110 111 112 113 115 118 119 121 124 130 131 133 134 139 
48 116 138 
1 69 75 
1 4 20 26 31 34 68 75 
3 5 6 7 10 11 15 18 19 22 23 24 27 28 30 35 36 37 38 39 40 41 42 43 44 45 46 49 50 51 52 53 54 55 57 58 59 60 61 65 66 71 72 74 76 79 81 82 83 85 86 88 89 90 91 92 93 94 96 97 100 101 103 105 107 109 110 111 112 113 115 118 119 121 122 124 130 131 133 134 135 139 
6 7 15 18 19 23 24 27 28 32 35 36 37 38 39 43 46 49 50 51 52 55 57 58 59 60 61 65 66 70 74 79 81 82 85 89 90 91 94 96 97 100 103 105 107 109 110 111 113 115 118 119 121 131 133 134 139 
8 24 49 61 65 70 89 97 135 
63 78 84 98 
6 7 11 13 15 18 19 22 23 24 27 28 29 32 35 36 37 38 39 40 43 44 45 46 49 50 51 52 54 55 57 58 59 60 61 65 66 70 71 79 81 82 85 86 88 89 90 91 94 96 97 100 101 103 105 107 109 110 111 113 115 118 119 121 124 127 131 133 134 139 
1 12 68 69 77 78 
3 7 10 11 24 36 37 38 40 46 51 52 54 60 61 65 70 85 86 88 89 90 92 96 97 100 101 112 113 115 118 122 124 130 131 133 139 
12 21 75 
63 73 75 84 98 
3 6 7 10 11 13 15 18 19 23 24 27 28 32 35 36 37 38 39 40 41 42 43 44 46 50 51 52 54 55 57 58 59 60 61 65 66 70 71 74 81 82 85 86 88 89 90 91 92 94 96 97 100 103 107 109 110 111 112 113 118 119 122 124 127 129 130 131 133 134 139 

6 7 15 18 19 23 24 28 32 37 38 39 43 46 49 50 51 52 55 57 58 59 60 61 65 66 70 71 74 79 82 85 88 89 90 91 94 96 97 100 101 103 105 107 109 110 111 113 115 118 119 121 131 133 134 139 
6 7 11 15 18 23 24 28 35 36 37 38 39 40 43 44 45 46 49 50 51 52 53 54 55 57 58 59 60 61 65 66 70 71 74 79 81 85 86 88 89 90 91 93 94 96 97 100 101 103 105 107 109 110 111 113 115 118 119 121 122 124 131 133 134 139 
36 49 53 61 65 70 89 90 97 105 118 119 139 
63 73 78 98 
3 5 6 7 10 11 13 15 18 19 22 23 24 28 29 30 32 35 36 37 38 39 40 42 43 44 45 46 49 50 51 52 54 55 57 58 59 60 61 65 66 70 71 74 76 79 81 82 86 88 89 90 91 92 93 94 96 97 100 101 103 105 107 109 110 111 112 113 115 118 119 121 122 124 127 129 130 131 133 134 139 
3 6 7 10 11 15 22 23 24 28 30 36 37 38 40 41 42 44 45 46 49 51 52 54 55 57 58 59 60 61 65 66 70 74 76 79 82 85 88 89 90 92 94 96 97 100 101 102 103 107 108 109 110 112 113 115 118 119 120 121 122 124 130 131 133 136 139 

3 6 7 10 11 15 23 24 28 30 36 37 38 40 41 42 44 46 49 51 52 54 55 57 58 59 60 61 65 66 70 74 76 79 81 82 85 86 89 90 91 92 93 94 96 97 100 101 102 103 105 107 108 109 110 112 113 115 118 119 120 121 122 124 130 131 133 139 
3 5 6 7 10 11 15 18 23 24 27 28 29 30 32 35 36 37 38 39 40 42 43 44 46 49 50 51 52 53 54 55 57 58 59 60 61 65 66 70 71 72 74 76 79 81 82 83 85 86 88 90 91 92 94 96 97 100 101 103 105 107 109 110 111 112 113 115 118 119 121 122 124 130 131 133 134 139 
3 5 6 7 10 11 15 18 22 23 24 27 28 30 32 36 37 38 39 40 41 42 44 45 46 49 50 51 52 53 54 55 57 58 59 60 61 65 66 70 71 74 76 79 81 82 83 85 86 88 89 91 92 93 94 96 97 100 101 102 103 105 107 108 109 110 111 112 113 115 118 119 120 121 122 124 130 131 133 134 136 139 
6 13 15 18 19 22 23 24 27 28 32 35 36 37 38 39 43 46 49 50 51 52 55 57 58 59 60 61 65 66 70 71 74 79 81 82 85 88 89 90 94 96 97 100 101 103 105 107 109 110 111 113 118 119 121 127 129 131 133 134 139 
3 6 7 10 11 15 19 24 28 30 32 36 37 38 40 41 42 44 46 51 52 54 55 57 58 60 61 65 66 70 76 79 85 86 88 89 90 96 97 99 100 101 102 103 108 109 112 113 115 118 119 121 122 124 130 131 133 136 139 
6 7 11 22 23 24 36 38 44 45 51 52 55 59 60 61 65 70 82 85 88 90 94 96 100 104 107 110 113 115 118 119 131 133 139 
6 7 11 13 15 18 19 23 24 27 28 32 35 36 37 38 39 40 43 44 46 49 50 51 52 54 55 57 58 59 60 61 65 66 70 71 74 79 81 82 85 86 88 89 90 91 93 96 97 100 101 103 105 107 109 110 111 112 113 115 118 119 121 122 124 127 131 133 134 139 
56 
3 6 7 10 11 15 18 23 24 27 28 30 32 36 37 38 39 40 41 42 43 44 45 46 49 51 52 53 54 55 57 58 59 60 61 65 66 70 71 74 76 79 81 82 85 86 88 89 90 91 92 93 94 97 100 101 102 103 107 108 109 110 111 112 113 115 118 119 121 122 124 130 131 133 134 139 
3 6 7 10 11 15 18 19 23 24 27 28 32 36 37 38 39 40 42 43 44 45 46 49 50 51 52 54 55 57 58 59 60 61 65 66 70 71 72 74 76 79 81 82 83 85 86 88 89 90 91 92 94 96 100 101 102 103 105 107 109 110 111 112 113 115 118 119 121 122 124 130 131 133 134 139 
63 73 78 84 
3 10 42 92 112 122 130 
3 5 6 7 10 11 13 15 18 23 24 27 28 29 30 32 35 36 37 38 39 40 42 43 44 46 49 50 51 52 54 55 57 58 59 60 61 65 66 70 71 74 76 79 81 82 85 86 88 89 90 91 92 93 94 96 97 101 103 105 107 109 110 111 112 113 115 118 119 121 122 124 127 129 130 131 133 134 139 
3 6 7 10 11 15 18 23 24 28 30 36 37 38 39 40 41 42 44 46 49 51 52 54 55 57 58 59 60 61 65 66 70 74 76 81 82 85 86 88 89 90 91 92 94 96 97 100 102 105 107 108 109 110 112 113 115 118 119 120 121 122 124 130 131 133 134 139 
3 10 11 30 36 37 40 41 46 51 52 54 86 88 90 92 96 97 101 108 112 120 122 124 130 136 139 
3 6 10 11 15 18 19 23 24 28 32 35 37 38 39 40 43 44 46 49 50 51 52 55 57 58 59 60 61 65 66 70 71 74 79 81 82 85 86 88 89 90 91 92 94 96 97 100 107 109 110 111 112 113 118 119 124 129 130 131 133 139 
7 22 38 45 49 93 115 118 119 
6 15 18 23 24 28 30 36 37 38 39 41 43 44 45 46 49 51 52 53 55 57 59 60 61 65 70 71 74 81 82 83 85 88 89 90 91 94 97 100 101 107 109 110 113 118 119 121 131 133 139 
9 
3 6 7 10 11 13 15 18 19 23 24 27 28 32 35 36 37 38 39 40 43 44 45 46 49 50 51 52 53 54 55 57 58 59 60 61 65 66 70 71 74 79 81 82 85 86 88 89 90 91 93 94 96 97 100 101 103 105 109 110 111 112 113 115 118 119 121 122 124 127 129 130 131 133 134 139 
3 10 11 30 36 40 41 42 46 51 54 86 88 90 92 96 101 102 112 120 122 124 130 136 
3 6 7 10 11 13 15 18 19 22 23 24 27 28 32 35 36 37 38 39 40 43 44 45 46 49 50 51 52 54 55 57 58 59 60 61 65 66 70 71 74 79 81 82 85 86 88 89 90 91 92 94 96 97 100 101 103 105 107 110 111 112 113 115 118 119 121 124 127 129 130 131 133 134 139 
6 7 11 13 15 18 19 23 24 27 28 29 32 35 36 37 38 39 40 43 44 45 46 49 50 51 52 53 54 55 57 58 59 60 61 65 66 70 71 74 79 81 82 85 86 88 89 90 91 93 94 96 97 100 101 103 105 107 109 111 112 113 115 118 119 121 122 124 127 131 133 134 139 
3 5 6 7 10 11 15 18 19 23 24 27 28 29 30 35 36 37 38 39 46 50 51 52 55 57 58 59 60 61 65 66 70 71 74 79 81 82 85 89 90 91 94 96 97 100 103 107 109 110 112 113 115 118 119 130 131 133 134 139 
3 6 7 10 11 15 23 24 28 30 36 37 38 39 40 41 42 44 46 49 51 52 54 55 57 58 59 60 61 65 66 70 76 79 85 86 88 89 90 92 94 96 97 99 100 101 102 103 107 108 109 110 111 113 115 118 119 120 122 124 130 131 133 134 139 
3 6 7 10 11 13 15 18 19 23 24 27 28 29 32 35 36 37 38 39 42 43 44 46 49 50 51 52 54 55 57 58 59 60 61 65 66 70 71 74 76 79 81 82 85 86 88 89 90 91 92 93 94 96 97 100 101 103 105 107 109 110 111 112 115 118 119 121 122 127 129 130 131 133 134 139 
4 20 21 25 26 31 34 64 125 128 132 
3 6 7 10 11 15 18 22 23 24 30 36 37 38 39 40 41 42 44 45 46 49 51 52 53 54 55 57 58 59 60 61 65 66 70 71 74 76 81 82 85 86 88 89 90 92 93 94 96 97 100 101 104 107 109 110 111 112 113 118 119 121 122 124 130 131 133 134 139 
48 67 138 
62 126 
3 6 7 10 11 13 15 18 19 22 23 24 27 28 29 30 32 35 36 37 38 39 40 41 42 43 44 45 46 49 50 51 52 53 54 55 57 58 59 60 61 65 66 70 71 74 76 79 81 82 83 85 86 88 89 90 91 92 93 94 96 97 100 101 103 104 105 107 109 110 111 112 113 115 119 121 122 124 127 130 131 133 134 135 139 
3 6 7 10 11 15 18 22 23 24 28 30 36 37 38 39 40 41 42 43 44 45 46 49 51 52 53 54 55 57 58 59 60 61 65 66 70 71 74 79 81 82 83 85 86 88 89 90 91 92 93 94 96 97 100 101 103 104 105 107 109 110 111 112 113 115 118 121 122 124 130 131 133 134 139 
11 30 36 40 41 46 51 86 88 90 101 102 108 112 124 136 
3 6 7 10 11 15 18 19 23 24 27 30 35 36 37 38 39 41 43 44 45 46 49 51 52 54 55 57 58 59 60 61 65 66 70 71 74 81 82 85 86 88 89 90 91 92 94 96 97 100 101 105 107 109 110 113 115 118 119 124 130 131 133 139 
3 6 7 10 11 23 24 28 30 35 36 37 38 39 40 41 42 44 46 51 52 54 55 57 59 61 65 70 76 79 82 85 86 88 89 90 92 94 96 97 99 100 101 102 107 108 110 112 113 115 118 119 124 130 131 133 136 139 
17 47 
3 6 7 10 11 15 23 24 28 30 36 37 38 39 40 41 42 44 46 49 51 52 54 55 57 58 59 60 61 65 66 70 74 76 79 82 85 86 88 89 90 92 94 96 97 100 101 102 103 107 108 109 110 112 115 118 119 120 121 122 130 131 133 136 139 
4 14 20 21 25 26 31 34 64 114 128 132 
62 117 
6 13 15 23 24 28 32 37 38 43 52 55 59 60 74 79 85 91 94 100 107 109 110 113 118 129 131 139 
4 14 16 20 21 25 26 31 34 64 114 125 132 
13 28 32 37 50 52 60 79 85 91 100 103 107 109 113 127 131 133 
3 6 7 10 11 15 24 28 30 32 36 37 38 39 40 41 42 44 46 49 51 52 54 55 57 58 60 61 65 66 70 76 79 85 86 88 89 90 92 96 97 99 100 101 102 103 107 108 109 111 112 113 115 118 119 121 122 124 131 133 136 139 
3 6 7 10 11 13 15 18 23 24 28 29 32 35 36 37 38 39 40 43 44 46 50 51 52 54 55 57 58 59 60 61 65 66 70 71 74 76 79 81 82 85 86 88 89 90 91 92 93 94 96 97 100 101 103 105 107 109 110 111 112 113 115 118 119 121 122 124 127 129 130 133 134 139 
4 20 21 25 26 31 34 114 125 128 
3 5 6 7 10 11 15 18 19 23 24 27 28 32 36 37 38 39 40 42 43 44 45 46 49 50 51 52 53 54 55 57 58 59 60 61 65 66 70 71 74 76 79 81 82 85 86 88 89 90 91 92 93 94 96 97 100 101 103 105 107 109 110 111 112 113 115 118 119 121 122 124 129 130 131 134 139 
5 6 7 11 15 18 19 23 24 27 29 30 32 35 36 37 38 39 42 43 46 49 51 52 55 57 58 59 60 61 65 66 70 71 74 79 81 82 85 89 90 91 94 96 97 100 101 107 109 110 111 112 113 115 118 119 131 133 139 
8 70 72 118 
3 10 11 40 41 42 46 51 86 90 92 102 108 120 122 124 130 

48 67 116 
3 6 7 10 11 13 15 18 19 22 23 24 28 30 32 35 36 37 38 39 40 41 42 43 44 45 46 49 50 51 52 53 54 55 57 58 59 60 61 65 66 70 71 74 76 79 81 82 83 85 86 88 89 90 91 92 93 94 96 97 100 101 102 103 105 107 109 110 111 112 113 115 118 119 121 122 124 127 130 131 133 134 
